HDL/GCD_formal_property_verification/BONUS_gcd_cover/model/design_smt2.smt2
; SMT-LIBv2 description generated by Yosys 0.9+2406 (git sha1 95fb3cf, clang 3.4.2 -fPIC -Os)
; yosys-smt2-module gcd_ctrl
(declare-sort |gcd_ctrl_s| 0)
(declare-fun |gcd_ctrl_is| (|gcd_ctrl_s|) Bool)
; yosys-smt2-output swap_registers 1
; yosys-smt2-wire swap_registers 1
; yosys-smt2-anyseq gcd_ctrl#0 2 $auto$setundef.cc:501:execute$100
(declare-fun |gcd_ctrl#0| (|gcd_ctrl_s|) (_ BitVec 2)) ; $auto$rtlil.cc:2398:Anyseq$101
(declare-fun |gcd_ctrl#1| (|gcd_ctrl_s|) (_ BitVec 1)) ; \register_a_smaller
(define-fun |gcd_ctrl#2| ((state |gcd_ctrl_s|)) (_ BitVec 2) (ite (= ((_ extract 0 0) (|gcd_ctrl#1| state)) #b1) #b01 #b10)) ; $4\ns[1:0]
(declare-fun |gcd_ctrl#3| (|gcd_ctrl_s|) (_ BitVec 1)) ; \registers_equal
(define-fun |gcd_ctrl#4| ((state |gcd_ctrl_s|)) (_ BitVec 2) (ite (= ((_ extract 0 0) (|gcd_ctrl#3| state)) #b1) #b11 (|gcd_ctrl#2| state))) ; $3\ns[1:0]
(declare-fun |gcd_ctrl#5| (|gcd_ctrl_s|) (_ BitVec 1)) ; \start
(define-fun |gcd_ctrl#6| ((state |gcd_ctrl_s|)) (_ BitVec 2) (ite (= ((_ extract 0 0) (|gcd_ctrl#5| state)) #b1) #b00 #b11)) ; $2\ns[1:0]
(declare-fun |gcd_ctrl#7| (|gcd_ctrl_s|) (_ BitVec 2)) ; $auto$async2sync.cc:104:execute$97
(declare-fun |gcd_ctrl#8| (|gcd_ctrl_s|) (_ BitVec 1)) ; \reset_n
(define-fun |gcd_ctrl#9| ((state |gcd_ctrl_s|)) (_ BitVec 2) (ite (= ((_ extract 0 0) (|gcd_ctrl#8| state)) #b1) (|gcd_ctrl#7| state) #b11)) ; \ps
(define-fun |gcd_ctrl#10| ((state |gcd_ctrl_s|)) Bool (= (|gcd_ctrl#9| state) #b10)) ; $procmux$54_CMP
(define-fun |gcd_ctrl#11| ((state |gcd_ctrl_s|)) Bool (= (|gcd_ctrl#9| state) #b01)) ; $procmux$55_CMP
(define-fun |gcd_ctrl#12| ((state |gcd_ctrl_s|)) Bool (not (or  (= ((_ extract 0 0) (|gcd_ctrl#9| state)) #b1) (= ((_ extract 1 1) (|gcd_ctrl#9| state)) #b1)))) ; $eq$gcd_ctrl.sv:38$26_Y
(define-fun |gcd_ctrl#13| ((state |gcd_ctrl_s|)) Bool (= (|gcd_ctrl#9| state) #b11)) ; $procmux$52_CMP
(define-fun |gcd_ctrl#14| ((state |gcd_ctrl_s|)) (_ BitVec 2) (ite (|gcd_ctrl#13| state) (|gcd_ctrl#6| state) (ite (|gcd_ctrl#12| state) (|gcd_ctrl#4| state) (ite (|gcd_ctrl#11| state) #b10 (ite (|gcd_ctrl#10| state) #b00 (|gcd_ctrl#0| state)))))) ; \ns
(define-fun |gcd_ctrl#15| ((state |gcd_ctrl_s|)) Bool (= (|gcd_ctrl#14| state) #b01)) ; \swap_registers
(define-fun |gcd_ctrl_n swap_registers| ((state |gcd_ctrl_s|)) Bool (|gcd_ctrl#15| state))
; yosys-smt2-output subtract_registers 1
; yosys-smt2-wire subtract_registers 1
(define-fun |gcd_ctrl#16| ((state |gcd_ctrl_s|)) Bool (= (|gcd_ctrl#14| state) #b10)) ; \subtract_registers
(define-fun |gcd_ctrl_n subtract_registers| ((state |gcd_ctrl_s|)) Bool (|gcd_ctrl#16| state))
; yosys-smt2-input start 1
; yosys-smt2-wire start 1
(define-fun |gcd_ctrl_n start| ((state |gcd_ctrl_s|)) Bool (= ((_ extract 0 0) (|gcd_ctrl#5| state)) #b1))
; yosys-smt2-input reset_n 1
; yosys-smt2-wire reset_n 1
(define-fun |gcd_ctrl_n reset_n| ((state |gcd_ctrl_s|)) Bool (= ((_ extract 0 0) (|gcd_ctrl#8| state)) #b1))
; yosys-smt2-input registers_equal 1
; yosys-smt2-wire registers_equal 1
(define-fun |gcd_ctrl_n registers_equal| ((state |gcd_ctrl_s|)) Bool (= ((_ extract 0 0) (|gcd_ctrl#3| state)) #b1))
; yosys-smt2-input register_a_smaller 1
; yosys-smt2-wire register_a_smaller 1
(define-fun |gcd_ctrl_n register_a_smaller| ((state |gcd_ctrl_s|)) Bool (= ((_ extract 0 0) (|gcd_ctrl#1| state)) #b1))
; yosys-smt2-wire ps 2
(define-fun |gcd_ctrl_n ps| ((state |gcd_ctrl_s|)) (_ BitVec 2) (|gcd_ctrl#9| state))
; yosys-smt2-wire ns 2
(define-fun |gcd_ctrl_n ns| ((state |gcd_ctrl_s|)) (_ BitVec 2) (|gcd_ctrl#14| state))
; yosys-smt2-output done_flag 1
; yosys-smt2-wire done_flag 1
(define-fun |gcd_ctrl#17| ((state |gcd_ctrl_s|)) Bool (= (|gcd_ctrl#14| state) #b11)) ; $eq$gcd_ctrl.sv:38$25_Y
(define-fun |gcd_ctrl#18| ((state |gcd_ctrl_s|)) Bool (and (or  (|gcd_ctrl#17| state) false) (or  (|gcd_ctrl#12| state) false))) ; \done_flag
(define-fun |gcd_ctrl_n done_flag| ((state |gcd_ctrl_s|)) Bool (|gcd_ctrl#18| state))
; yosys-smt2-input clk 1
; yosys-smt2-wire clk 1
; yosys-smt2-clock clk posedge
(declare-fun |gcd_ctrl#19| (|gcd_ctrl_s|) Bool) ; \clk
(define-fun |gcd_ctrl_n clk| ((state |gcd_ctrl_s|)) Bool (|gcd_ctrl#19| state))
; yosys-smt2-register $auto$async2sync.cc:104:execute$97 2
(define-fun |gcd_ctrl_n $auto$async2sync.cc:104:execute$97| ((state |gcd_ctrl_s|)) (_ BitVec 2) (|gcd_ctrl#7| state))
(define-fun |gcd_ctrl#20| ((state |gcd_ctrl_s|)) (_ BitVec 2) (ite (= ((_ extract 0 0) (|gcd_ctrl#8| state)) #b1) (|gcd_ctrl#14| state) #b11)) ; $auto$async2sync.cc:103:execute$96
(define-fun |gcd_ctrl_a| ((state |gcd_ctrl_s|)) Bool true)
(define-fun |gcd_ctrl_u| ((state |gcd_ctrl_s|)) Bool true)
(define-fun |gcd_ctrl_i| ((state |gcd_ctrl_s|)) Bool true)
(define-fun |gcd_ctrl_h| ((state |gcd_ctrl_s|)) Bool true)
(define-fun |gcd_ctrl_t| ((state |gcd_ctrl_s|) (next_state |gcd_ctrl_s|)) Bool 
  (= (|gcd_ctrl#20| state) (|gcd_ctrl#7| next_state)) ; $procdff$78 $auto$async2sync.cc:104:execute$97
) ; end of module gcd_ctrl
; yosys-smt2-module gcd
(declare-sort |gcd_s| 0)
(declare-fun |gcd_is| (|gcd_s|) Bool)
; yosys-smt2-wire swap_registers 1
; yosys-smt2-cell gcd_ctrl gcd_ctrl_0
(declare-fun |gcd#0| (|gcd_s|) Bool) ; \swap_registers
(declare-fun |gcd#1| (|gcd_s|) Bool) ; \subtract_registers
(declare-fun |gcd#2| (|gcd_s|) Bool) ; \done_flag
(declare-fun |gcd_h gcd_ctrl_0| (|gcd_s|) |gcd_ctrl_s|)
(define-fun |gcd_n swap_registers| ((state |gcd_s|)) Bool (|gcd#0| state))
; yosys-smt2-wire subtract_registers 1
(define-fun |gcd_n subtract_registers| ((state |gcd_s|)) Bool (|gcd#1| state))
; yosys-smt2-input start 1
; yosys-smt2-wire start 1
(declare-fun |gcd#3| (|gcd_s|) Bool) ; \start
(define-fun |gcd_n start| ((state |gcd_s|)) Bool (|gcd#3| state))
; yosys-smt2-output result 32
; yosys-smt2-wire result 32
(declare-fun |gcd#4| (|gcd_s|) (_ BitVec 32)) ; $auto$async2sync.cc:104:execute$89
(declare-fun |gcd#5| (|gcd_s|) (_ BitVec 1)) ; \reset_n
(define-fun |gcd#6| ((state |gcd_s|)) (_ BitVec 32) (ite (= ((_ extract 0 0) (|gcd#5| state)) #b1) (|gcd#4| state) #b00000000000000000000000000000000)) ; \result
(define-fun |gcd_n result| ((state |gcd_s|)) (_ BitVec 32) (|gcd#6| state))
; yosys-smt2-input reset_n 1
; yosys-smt2-wire reset_n 1
(define-fun |gcd_n reset_n| ((state |gcd_s|)) Bool (= ((_ extract 0 0) (|gcd#5| state)) #b1))
; yosys-smt2-wire registers_equal 1
(declare-fun |gcd#7| (|gcd_s|) (_ BitVec 32)) ; $auto$async2sync.cc:104:execute$93
(define-fun |gcd#8| ((state |gcd_s|)) (_ BitVec 32) (ite (= ((_ extract 0 0) (|gcd#5| state)) #b1) (|gcd#7| state) #b00000000000000000000000000000000)) ; \register_b
(define-fun |gcd#9| ((state |gcd_s|)) Bool (= (|gcd#6| state) (|gcd#8| state))) ; \registers_equal
(define-fun |gcd_n registers_equal| ((state |gcd_s|)) Bool (|gcd#9| state))
; yosys-smt2-wire register_b 32
(define-fun |gcd_n register_b| ((state |gcd_s|)) (_ BitVec 32) (|gcd#8| state))
; yosys-smt2-wire register_a_smaller 1
(define-fun |gcd#10| ((state |gcd_s|)) Bool (bvult (|gcd#6| state) (|gcd#8| state))) ; \register_a_smaller
(define-fun |gcd_n register_a_smaller| ((state |gcd_s|)) Bool (|gcd#10| state))
; yosys-smt2-wire done_flag 1
(define-fun |gcd_n done_flag| ((state |gcd_s|)) Bool (|gcd#2| state))
; yosys-smt2-output done 1
; yosys-smt2-wire done 1
(declare-fun |gcd#11| (|gcd_s|) (_ BitVec 1)) ; $auto$async2sync.cc:104:execute$85
(define-fun |gcd#12| ((state |gcd_s|)) (_ BitVec 1) (ite (= ((_ extract 0 0) (|gcd#5| state)) #b1) (|gcd#11| state) #b0)) ; \done
(define-fun |gcd_n done| ((state |gcd_s|)) Bool (= ((_ extract 0 0) (|gcd#12| state)) #b1))
; yosys-smt2-input clk 1
; yosys-smt2-wire clk 1
; yosys-smt2-clock clk posedge
(declare-fun |gcd#13| (|gcd_s|) Bool) ; \clk
(define-fun |gcd_n clk| ((state |gcd_s|)) Bool (|gcd#13| state))
; yosys-smt2-input clck 1
; yosys-smt2-wire clck 1
; yosys-smt2-clock clck posedge
(declare-fun |gcd#14| (|gcd_s|) Bool) ; \clck
(define-fun |gcd_n clck| ((state |gcd_s|)) Bool (|gcd#14| state))
; yosys-smt2-input b_in 32
; yosys-smt2-wire b_in 32
(declare-fun |gcd#15| (|gcd_s|) (_ BitVec 32)) ; \b_in
(define-fun |gcd_n b_in| ((state |gcd_s|)) (_ BitVec 32) (|gcd#15| state))
; yosys-smt2-input a_in 32
; yosys-smt2-wire a_in 32
(declare-fun |gcd#16| (|gcd_s|) (_ BitVec 32)) ; \a_in
(define-fun |gcd_n a_in| ((state |gcd_s|)) (_ BitVec 32) (|gcd#16| state))
; yosys-smt2-register $auto$async2sync.cc:104:execute$93 32
(define-fun |gcd_n $auto$async2sync.cc:104:execute$93| ((state |gcd_s|)) (_ BitVec 32) (|gcd#7| state))
; yosys-smt2-register $auto$async2sync.cc:104:execute$89 32
(define-fun |gcd_n $auto$async2sync.cc:104:execute$89| ((state |gcd_s|)) (_ BitVec 32) (|gcd#4| state))
; yosys-smt2-register $auto$async2sync.cc:104:execute$85 1
(define-fun |gcd_n $auto$async2sync.cc:104:execute$85| ((state |gcd_s|)) Bool (= ((_ extract 0 0) (|gcd#11| state)) #b1))
(define-fun |gcd#17| ((state |gcd_s|)) (_ BitVec 1) (ite (|gcd#2| state) #b1 #b0)) ; $0\done[0:0]
(define-fun |gcd#18| ((state |gcd_s|)) (_ BitVec 1) (ite (= ((_ extract 0 0) (|gcd#5| state)) #b1) (|gcd#17| state) #b0)) ; $auto$async2sync.cc:103:execute$84
(define-fun |gcd#19| ((state |gcd_s|)) (_ BitVec 32) (ite (|gcd#0| state) (|gcd#6| state) (|gcd#8| state))) ; $procmux$73_Y
(define-fun |gcd#20| ((state |gcd_s|)) (_ BitVec 32) (ite (|gcd#3| state) (|gcd#15| state) (|gcd#19| state))) ; $0\register_b[31:0]
(define-fun |gcd#21| ((state |gcd_s|)) (_ BitVec 32) (ite (= ((_ extract 0 0) (|gcd#5| state)) #b1) (|gcd#20| state) #b00000000000000000000000000000000)) ; $auto$async2sync.cc:103:execute$92
(define-fun |gcd#22| ((state |gcd_s|)) (_ BitVec 32) (bvsub (|gcd#6| state) (|gcd#8| state))) ; $sub$BONUS_gcd.sv:31$6_Y
(define-fun |gcd#23| ((state |gcd_s|)) (_ BitVec 32) (ite (|gcd#1| state) (|gcd#22| state) (|gcd#6| state))) ; $procmux$65_Y
(define-fun |gcd#24| ((state |gcd_s|)) (_ BitVec 32) (ite (|gcd#0| state) (|gcd#8| state) (|gcd#23| state))) ; $procmux$68_Y
(define-fun |gcd#25| ((state |gcd_s|)) (_ BitVec 32) (ite (|gcd#3| state) (|gcd#16| state) (|gcd#24| state))) ; $0\result[31:0]
(define-fun |gcd#26| ((state |gcd_s|)) (_ BitVec 32) (ite (= ((_ extract 0 0) (|gcd#5| state)) #b1) (|gcd#25| state) #b00000000000000000000000000000000)) ; $auto$async2sync.cc:103:execute$88
(define-fun |gcd_a| ((state |gcd_s|)) Bool 
  (|gcd_ctrl_a| (|gcd_h gcd_ctrl_0| state))
)
(define-fun |gcd_u| ((state |gcd_s|)) Bool 
  (|gcd_ctrl_u| (|gcd_h gcd_ctrl_0| state))
)
(define-fun |gcd_i| ((state |gcd_s|)) Bool 
  (|gcd_ctrl_i| (|gcd_h gcd_ctrl_0| state))
)
(define-fun |gcd_h| ((state |gcd_s|)) Bool (and
  (= (|gcd_is| state) (|gcd_ctrl_is| (|gcd_h gcd_ctrl_0| state)))
  (= (|gcd#0| state) (|gcd_ctrl_n swap_registers| (|gcd_h gcd_ctrl_0| state))) ; gcd_ctrl.swap_registers
  (= (|gcd#1| state) (|gcd_ctrl_n subtract_registers| (|gcd_h gcd_ctrl_0| state))) ; gcd_ctrl.subtract_registers
  (= (|gcd#3| state) (|gcd_ctrl_n start| (|gcd_h gcd_ctrl_0| state))) ; gcd_ctrl.start
  (= (= ((_ extract 0 0) (|gcd#5| state)) #b1) (|gcd_ctrl_n reset_n| (|gcd_h gcd_ctrl_0| state))) ; gcd_ctrl.reset_n
  (= (|gcd#9| state) (|gcd_ctrl_n registers_equal| (|gcd_h gcd_ctrl_0| state))) ; gcd_ctrl.registers_equal
  (= (|gcd#10| state) (|gcd_ctrl_n register_a_smaller| (|gcd_h gcd_ctrl_0| state))) ; gcd_ctrl.register_a_smaller
  (= (|gcd#2| state) (|gcd_ctrl_n done_flag| (|gcd_h gcd_ctrl_0| state))) ; gcd_ctrl.done_flag
  (= (|gcd#14| state) (|gcd_ctrl_n clk| (|gcd_h gcd_ctrl_0| state))) ; gcd_ctrl.clk
  (|gcd_ctrl_h| (|gcd_h gcd_ctrl_0| state))
))
(define-fun |gcd_t| ((state |gcd_s|) (next_state |gcd_s|)) Bool (and
  (= (|gcd#18| state) (|gcd#11| next_state)) ; $procdff$81 $auto$async2sync.cc:104:execute$85
  (= (|gcd#21| state) (|gcd#7| next_state)) ; $procdff$83 $auto$async2sync.cc:104:execute$93
  (= (|gcd#26| state) (|gcd#4| next_state)) ; $procdff$82 $auto$async2sync.cc:104:execute$89
  (|gcd_ctrl_t| (|gcd_h gcd_ctrl_0| state) (|gcd_h gcd_ctrl_0| next_state))
)) ; end of module gcd
; yosys-smt2-topmod gcd
; end of yosys output
